benchmark_str_length/p1_10_17-4.dzn
Alphabet = {A,C,G,T};
ns = 10;
nc = 17;
sl = 10;
neighbours = [| I(C),I(A),I(C),I(A),I(A),I(C),I(A),I(C),I(A),I(A),I(A),I(A),I(A),I(A),I(A),I(C),I(A) | I(C),I(A),I(A),I(C),I(A),I(A),I(A),I(A),I(A),I(A),I(C),I(C),I(A),I(A),I(A),I(C),I(G) | I(A),I(A),I(A),I(A),I(A),I(A),I(A),I(A),I(A),I(A),I(C),I(A),I(A),I(C),I(A),I(A),I(A) | I(C),I(C),I(A),I(A),I(C),I(A),I(A),I(A),I(C),I(C),I(A),I(A),I(A),I(A),I(A),I(A),I(A) | I(A),I(C),I(A),I(C),I(C),I(A),I(A),I(C),I(A),I(A),I(C),I(A),I(A),I(A),I(A),I(A),I(A) | I(A),I(C),I(A),I(A),I(A),I(C),I(A),I(A),I(A),I(A),I(C),I(A),I(A),I(A),I(A),I(A),I(A) | I(A),I(A),I(C),I(C),I(C),I(A),I(A),I(C),I(A),I(A),I(A),I(A),I(A),I(A),I(A),I(A),I(C) | I(A),I(A),I(C),I(A),I(C),I(A),I(A),I(A),I(A),I(A),I(A),I(A),I(C),I(C),I(C),I(A),I(A) | I(G),I(A),I(A),I(A),I(A),I(A),I(A),I(G),I(A),I(A),I(A),I(C),I(A),I(C),I(A),I(C),I(A) | I(A),I(A),I(C),I(C),I(A),I(A),I(C),I(A),I(A),I(A),I(A),I(A),I(A),I(A),I(A),I(A),I(A) |];
