benchmark_str_length/p1_10_17-4.txt
{
	"num_strings": 10,
	"alphabet": "ACGT",
	"strings": [
		"CACAACACAAAAAAACA",
		"CAACAAAAAACCAAACG",
		"AAAAAAAAAACAACAAA",
		"CCAACAAACCAAAAAAA",
		"ACACCAACAACAAAAAA",
		"ACAAACAAAACAAAAAA",
		"AACCCAACAAAAAAAAC",
		"AACACAAAAAAACCCAA",
		"GAAAAAAGAAACACACA",
		"AACCAACAAAAAAAAAA"
	],
	"str_length":[17,17,17,17,17,17,17,17,17,17]
}